results_rootrelaxation/bin012_060_035.srr.sol
solution status: optimal solution found
objective value:                     3.82467532467533
_var712_                            0.311688311688312 	(obj:0)
_var737_                            0.441558441558442 	(obj:0)
_var741_                           0.0324675324675325 	(obj:0)
_var753_                            0.701298701298701 	(obj:0)
_var754_                           0.0389610389610383 	(obj:0)
_var761_                            0.467532467532467 	(obj:1)
_var773_                            0.123376623376623 	(obj:0)
_var774_                            0.298701298701299 	(obj:0)
_var777_                            0.136363636363636 	(obj:0)
_var783_                           0.0909090909090909 	(obj:1)
_var787_                          0.00649350649350616 	(obj:0)
_var788_                            0.441558441558442 	(obj:0)
_var791_                            0.207792207792208 	(obj:0)
_var796_                           0.0909090909090909 	(obj:0)
_var810_                            0.298701298701299 	(obj:0)
_var831_                             0.24025974025974 	(obj:0)
_var837_                            0.337662337662338 	(obj:1)
_var840_                            0.142857142857143 	(obj:0)
_var846_                            0.168831168831169 	(obj:0)
_var847_                            0.558441558441558 	(obj:0)
_var849_                            0.201298701298702 	(obj:1)
_var853_                            0.350649350649351 	(obj:0)
_var855_                             0.11038961038961 	(obj:0)
_var857_                            0.318181818181818 	(obj:1)
_var859_                            0.142857142857143 	(obj:1)
_var861_                            0.357142857142857 	(obj:0)
_var863_                            0.298701298701299 	(obj:0)
_var866_                            0.136363636363636 	(obj:1)
_var871_                           0.0714285714285712 	(obj:1)
_var872_                            0.175324675324675 	(obj:0)
_var887_                            0.168831168831169 	(obj:0)
_var888_                           0.0259740259740259 	(obj:0)
_var889_                            0.214285714285714 	(obj:1)
_var894_                            0.435064935064935 	(obj:0)
_var895_                            0.162337662337663 	(obj:1)
_var896_                            0.123376623376623 	(obj:0)
_var897_                            0.051948051948052 	(obj:1)
_var898_                            0.181818181818182 	(obj:0)
_var900_                            0.019480519480519 	(obj:1)
_var901_                            0.136363636363636 	(obj:1)
_var906_                             0.24025974025974 	(obj:1)
_var908_                            0.214285714285714 	(obj:1)
_var909_                           0.0324675324675327 	(obj:1)
_var912_                            0.201298701298702 	(obj:1)
_var914_                            0.220779220779221 	(obj:1)
_var915_                            0.279220779220779 	(obj:1)
_var917_                           0.0584415584415587 	(obj:1)
_var919_                            0.175324675324675 	(obj:0)
_var924_                            0.207792207792208 	(obj:1)
_var928_                           0.0909090909090909 	(obj:0)
_var930_                            0.168831168831169 	(obj:0)
_var932_                            0.272727272727273 	(obj:0)
_var933_                           0.0194805194805196 	(obj:1)
