results_rootrelaxation/bin012_060_035.srr.log
SCIP version 8.0.3.5 [precision: 8 byte] [memory: block] [mode: optimized] [LP solver: Soplex 6.0.1.3] [GitHash: 438792519e]
Copyright (c) 2002-2023 Zuse Institute Berlin (ZIB)

External libraries: 
  Readline 8.1         GNU library for command line editing (gnu.org/s/readline)
  Soplex 6.0.1.3       Linear Programming Solver developed at Zuse Institute Berlin (soplex.zib.de) [GitHash: 713be0fe]
  CppAD 20180000.0     Algorithmic Differentiation of C++ algorithms developed by B. Bell (github.com/coin-or/CppAD)
  ZLIB 1.2.11          General purpose compression library by J. Gailly and M. Adler (zlib.net)
  bliss 0.77           Computing Graph Automorphism Groups by T. Junttila and P. Kaski (www.tcs.hut.fi/Software/bliss/)

user parameter file <scip.set> not found - using default parameters

srr/relaxation = TRUE

read problem <instances/bin012_060_035.srr>
============

Original problem: 
original problem has 0 variables (0 bin, 0 int, 0 impl, 0 cont) and 77 constraints

presolving:
presolving (1 rounds: 1 fast, 1 medium, 1 exhaustive):
 0 deleted vars, 0 deleted constraints, 0 added constraints, 0 tightened bounds, 0 added holes, 0 changed sides, 0 changed coefficients
 0 implications, 0 cliques
presolved problem has 0 variables (0 bin, 0 int, 0 impl, 0 cont) and 77 constraints
     77 constraints of type <linear>
Presolving Time: 0.00

 time | node  | left  |LP iter|LP it/n|mem/heur|mdpt |vars |cons |rows |cuts |sepa|confs|strbr|  dualbound   | primalbound  |  gap   | compl. 
  0.0s|     1 |     0 |     1 |     - |   710k |   0 |   1 |  77 |  77 |   0 |  0 |   0 |   0 |      --      |      --      |    Inf | unknown
r 0.1s|     1 |     0 |   812 |     - |simplero|   0 | 666 |  77 |  77 |   0 |  0 |   0 |   0 |      --      | 2.016988e+01 |    Inf | unknown
r 0.1s|     1 |     0 |   844 |     - |simplero|   0 | 677 |  77 |  77 |   0 |  0 |   0 |   0 |      --      | 1.938086e+01 |    Inf | unknown
r 0.1s|     1 |     0 |   880 |     - |simplero|   0 | 688 |  77 |  77 |   0 |  0 |   0 |   0 |      --      | 1.897619e+01 |    Inf | unknown
r 0.1s|     1 |     0 |   908 |     - |simplero|   0 | 699 |  77 |  77 |   0 |  0 |   0 |   0 |      --      | 1.743563e+01 |    Inf | unknown
r 0.1s|     1 |     0 |   927 |     - |simplero|   0 | 699 |  77 |  77 |   0 |  0 |   0 |   0 |      --      | 1.726274e+01 |    Inf | unknown
r 0.1s|     1 |     0 |   932 |     - |simplero|   0 | 699 |  77 |  77 |   0 |  0 |   0 |   0 |      --      | 1.723537e+01 |    Inf | unknown
r 0.1s|     1 |     0 |   983 |     - |simplero|   0 | 710 |  77 |  77 |   0 |  0 |   0 |   0 |      --      | 1.551267e+01 |    Inf | unknown
r 0.1s|     1 |     0 |  1030 |     - |simplero|   0 | 721 |  77 |  77 |   0 |  0 |   0 |   0 |      --      | 1.430760e+01 |    Inf | unknown
r 0.1s|     1 |     0 |  1063 |     - |simplero|   0 | 732 |  77 |  77 |   0 |  0 |   0 |   0 |      --      | 1.349627e+01 |    Inf | unknown
r 0.1s|     1 |     0 |  1082 |     - |simplero|   0 | 732 |  77 |  77 |   0 |  0 |   0 |   0 |      --      | 1.333977e+01 |    Inf | unknown
r 0.1s|     1 |     0 |  1088 |     - |simplero|   0 | 732 |  77 |  77 |   0 |  0 |   0 |   0 |      --      | 1.332442e+01 |    Inf | unknown
r 0.1s|     1 |     0 |  1137 |     - |simplero|   0 | 743 |  77 |  77 |   0 |  0 |   0 |   0 |      --      | 1.126203e+01 |    Inf | unknown
r 0.1s|     1 |     0 |  1155 |     - |simplero|   0 | 743 |  77 |  77 |   0 |  0 |   0 |   0 |      --      | 1.112197e+01 |    Inf | unknown
r 0.1s|     1 |     0 |  1161 |     - |simplero|   0 | 743 |  77 |  77 |   0 |  0 |   0 |   0 |      --      | 1.110882e+01 |    Inf | unknown
 time | node  | left  |LP iter|LP it/n|mem/heur|mdpt |vars |cons |rows |cuts |sepa|confs|strbr|  dualbound   | primalbound  |  gap   | compl. 
r 0.1s|     1 |     0 |  1216 |     - |simplero|   0 | 754 |  77 |  77 |   0 |  0 |   0 |   0 |      --      | 9.937866e+00 |    Inf | unknown
r 0.1s|     1 |     0 |  1231 |     - |simplero|   0 | 754 |  77 |  77 |   0 |  0 |   0 |   0 |      --      | 9.896906e+00 |    Inf | unknown
r 0.1s|     1 |     0 |  1238 |     - |simplero|   0 | 754 |  77 |  77 |   0 |  0 |   0 |   0 |      --      | 9.894020e+00 |    Inf | unknown
r 0.1s|     1 |     0 |  1286 |     - |simplero|   0 | 765 |  77 |  77 |   0 |  0 |   0 |   0 |      --      | 8.862489e+00 |    Inf | unknown
r 0.1s|     1 |     0 |  1308 |     - |simplero|   0 | 765 |  77 |  77 |   0 |  0 |   0 |   0 |      --      | 8.743572e+00 |    Inf | unknown
r 0.1s|     1 |     0 |  1374 |     - |simplero|   0 | 776 |  77 |  77 |   0 |  0 |   0 |   0 |      --      | 7.889455e+00 |    Inf | unknown
r 0.1s|     1 |     0 |  1388 |     - |simplero|   0 | 776 |  77 |  77 |   0 |  0 |   0 |   0 |      --      | 7.764444e+00 |    Inf | unknown
r 0.1s|     1 |     0 |  1425 |     - |simplero|   0 | 787 |  77 |  77 |   0 |  0 |   0 |   0 |      --      | 7.220543e+00 |    Inf | unknown
r 0.1s|     1 |     0 |  1451 |     - |simplero|   0 | 787 |  77 |  77 |   0 |  0 |   0 |   0 |      --      | 6.883639e+00 |    Inf | unknown
r 0.1s|     1 |     0 |  1456 |     - |simplero|   0 | 787 |  77 |  77 |   0 |  0 |   0 |   0 |      --      | 6.881765e+00 |    Inf | unknown
r 0.1s|     1 |     0 |  1488 |     - |simplero|   0 | 798 |  77 |  77 |   0 |  0 |   0 |   0 |      --      | 6.457962e+00 |    Inf | unknown
r 0.1s|     1 |     0 |  1494 |     - |simplero|   0 | 798 |  77 |  77 |   0 |  0 |   0 |   0 |      --      | 6.447907e+00 |    Inf | unknown
r 0.1s|     1 |     0 |  1526 |     - |simplero|   0 | 809 |  77 |  77 |   0 |  0 |   0 |   0 |      --      | 6.159207e+00 |    Inf | unknown
r 0.1s|     1 |     0 |  1527 |     - |simplero|   0 | 809 |  77 |  77 |   0 |  0 |   0 |   0 |      --      | 6.158945e+00 |    Inf | unknown
r 0.1s|     1 |     0 |  1553 |     - |simplero|   0 | 820 |  77 |  77 |   0 |  0 |   0 |   0 |      --      | 5.671199e+00 |    Inf | unknown
 time | node  | left  |LP iter|LP it/n|mem/heur|mdpt |vars |cons |rows |cuts |sepa|confs|strbr|  dualbound   | primalbound  |  gap   | compl. 
r 0.1s|     1 |     0 |  1569 |     - |simplero|   0 | 820 |  77 |  77 |   0 |  0 |   0 |   0 |      --      | 5.589117e+00 |    Inf | unknown
r 0.1s|     1 |     0 |  1602 |     - |simplero|   0 | 831 |  77 |  77 |   0 |  0 |   0 |   0 |      --      | 5.389948e+00 |    Inf | unknown
r 0.1s|     1 |     0 |  1614 |     - |simplero|   0 | 831 |  77 |  77 |   0 |  0 |   0 |   0 |      --      | 5.373140e+00 |    Inf | unknown
r 0.1s|     1 |     0 |  1659 |     - |simplero|   0 | 842 |  77 |  77 |   0 |  0 |   0 |   0 |      --      | 5.078377e+00 |    Inf | unknown
  0.1s|     1 |     0 |  1708 |     - |  4285k |   0 | 853 |  77 |  77 |   0 |  0 |   0 |   0 |      --      | 5.078377e+00 |    Inf | unknown
r 0.1s|     1 |     0 |  1708 |     - |simplero|   0 | 853 |  77 |  77 |   0 |  0 |   0 |   0 |      --      | 4.756581e+00 |    Inf | unknown
r 0.1s|     1 |     0 |  1711 |     - |simplero|   0 | 853 |  77 |  77 |   0 |  0 |   0 |   0 |      --      | 4.755760e+00 |    Inf | unknown
r 0.1s|     1 |     0 |  1758 |     - |simplero|   0 | 864 |  77 |  77 |   0 |  0 |   0 |   0 |      --      | 4.476126e+00 |    Inf | unknown
r 0.1s|     1 |     0 |  1775 |     - |simplero|   0 | 864 |  77 |  77 |   0 |  0 |   0 |   0 |      --      | 4.396699e+00 |    Inf | unknown
r 0.1s|     1 |     0 |  1777 |     - |simplero|   0 | 864 |  77 |  77 |   0 |  0 |   0 |   0 |      --      | 4.396499e+00 |    Inf | unknown
r 0.1s|     1 |     0 |  1812 |     - |simplero|   0 | 874 |  77 |  77 |   0 |  0 |   0 |   0 |      --      | 4.197905e+00 |    Inf | unknown
r 0.1s|     1 |     0 |  1822 |     - |simplero|   0 | 874 |  77 |  77 |   0 |  0 |   0 |   0 |      --      | 4.183784e+00 |    Inf | unknown
r 0.1s|     1 |     0 |  1826 |     - |simplero|   0 | 874 |  77 |  77 |   0 |  0 |   0 |   0 |      --      | 4.181643e+00 |    Inf | unknown
r 0.1s|     1 |     0 |  1848 |     - |simplero|   0 | 885 |  77 |  77 |   0 |  0 |   0 |   0 |      --      | 4.129264e+00 |    Inf | unknown
r 0.1s|     1 |     0 |  1867 |     - |simplero|   0 | 895 |  77 |  77 |   0 |  0 |   0 |   0 |      --      | 4.028489e+00 |    Inf | unknown
 time | node  | left  |LP iter|LP it/n|mem/heur|mdpt |vars |cons |rows |cuts |sepa|confs|strbr|  dualbound   | primalbound  |  gap   | compl. 
r 0.1s|     1 |     0 |  1884 |     - |simplero|   0 | 895 |  77 |  77 |   0 |  0 |   0 |   0 |      --      | 4.009572e+00 |    Inf | unknown
r 0.1s|     1 |     0 |  1913 |     - |simplero|   0 | 903 |  77 |  77 |   0 |  0 |   0 |   0 |      --      | 3.924459e+00 |    Inf | unknown
r 0.1s|     1 |     0 |  1918 |     - |simplero|   0 | 903 |  77 |  77 |   0 |  0 |   0 |   0 |      --      | 3.922998e+00 |    Inf | unknown
r 0.1s|     1 |     0 |  1942 |     - |simplero|   0 | 912 |  77 |  77 |   0 |  0 |   0 |   0 |      --      | 3.869369e+00 |    Inf | unknown
r 0.1s|     1 |     0 |  1945 |     - |simplero|   0 | 912 |  77 |  77 |   0 |  0 |   0 |   0 |      --      | 3.869161e+00 |    Inf | unknown
r 0.1s|     1 |     0 |  1970 |     - |simplero|   0 | 920 |  77 |  77 |   0 |  0 |   0 |   0 |      --      | 3.832298e+00 |    Inf | unknown
r 0.1s|     1 |     0 |  1983 |     - |simplero|   0 | 926 |  77 |  77 |   0 |  0 |   0 |   0 |      --      | 3.827614e+00 |    Inf | unknown
r 0.1s|     1 |     0 |  1997 |     - |simplero|   0 | 931 |  77 |  77 |   0 |  0 |   0 |   0 |      --      | 3.825911e+00 |    Inf | unknown
r 0.1s|     1 |     0 |  2001 |     - |simplero|   0 | 933 |  77 |  77 |   0 |  0 |   0 |   0 |      --      | 3.825175e+00 |    Inf | unknown
r 0.1s|     1 |     0 |  2002 |     - |simplero|   0 | 933 |  77 |  77 |   0 |  0 |   0 |   0 |      --      | 3.824903e+00 |    Inf | unknown
r 0.1s|     1 |     0 |  2003 |     - |simplero|   0 | 934 |  77 |  77 |   0 |  0 |   0 |   0 |      --      | 3.824675e+00 |    Inf | unknown
  0.1s|     1 |     0 |  2003 |     - |  4605k |   0 | 934 |  77 |  77 |   0 |  0 |   0 |   0 | 3.824675e+00 | 3.824675e+00 |   0.00%| unknown
  0.1s|     1 |     0 |  2003 |     - |  4605k |   0 | 934 |  77 |  77 |   0 |  0 |   0 |   0 | 3.824675e+00 | 3.824675e+00 |   0.00%| unknown

SCIP Status        : problem is solved [optimal solution found]
Solving Time (sec) : 0.12
Solving Nodes      : 1
Primal Bound       : +3.82467532467533e+00 (54 solutions)
Dual Bound         : +3.82467532467533e+00
Gap                : 0.00 %

written transformed problem to file <results_rootrelaxation/bin012_060_035.srr.lp>
written transformed problem to file <results_rootrelaxation/bin012_060_035.srr.cip>


SCIP version 8.0.3.5 [precision: 8 byte] [memory: block] [mode: optimized] [LP solver: Soplex 6.0.1.3] [GitHash: 438792519e]
Copyright (c) 2002-2023 Zuse Institute Berlin (ZIB)

External libraries: 
  Readline 8.1         GNU library for command line editing (gnu.org/s/readline)
  Soplex 6.0.1.3       Linear Programming Solver developed at Zuse Institute Berlin (soplex.zib.de) [GitHash: 713be0fe]
  CppAD 20180000.0     Algorithmic Differentiation of C++ algorithms developed by B. Bell (github.com/coin-or/CppAD)
  ZLIB 1.2.11          General purpose compression library by J. Gailly and M. Adler (zlib.net)
  bliss 0.77           Computing Graph Automorphism Groups by T. Junttila and P. Kaski (www.tcs.hut.fi/Software/bliss/)

user parameter file <scip.set> not found - using default parameters

srr/relaxation = TRUE

read problem <instances/bin012_060_035.srr>
============

Original problem: 
original problem has 0 variables (0 bin, 0 int, 0 impl, 0 cont) and 77 constraints

presolving:
presolving (1 rounds: 1 fast, 1 medium, 1 exhaustive):
 0 deleted vars, 0 deleted constraints, 0 added constraints, 0 tightened bounds, 0 added holes, 0 changed sides, 0 changed coefficients
 0 implications, 0 cliques
presolved problem has 0 variables (0 bin, 0 int, 0 impl, 0 cont) and 77 constraints
     77 constraints of type <linear>
Presolving Time: 0.00

 time | node  | left  |LP iter|LP it/n|mem/heur|mdpt |vars |cons |rows |cuts |sepa|confs|strbr|  dualbound   | primalbound  |  gap   | compl. 
  0.0s|     1 |     0 |     1 |     - |   710k |   0 |   1 |  77 |  77 |   0 |  0 |   0 |   0 |      --      |      --      |    Inf | unknown
r 0.0s|     1 |     0 |   812 |     - |simplero|   0 | 666 |  77 |  77 |   0 |  0 |   0 |   0 |      --      | 2.016988e+01 |    Inf | unknown
r 0.0s|     1 |     0 |   844 |     - |simplero|   0 | 677 |  77 |  77 |   0 |  0 |   0 |   0 |      --      | 1.938086e+01 |    Inf | unknown
r 0.0s|     1 |     0 |   880 |     - |simplero|   0 | 688 |  77 |  77 |   0 |  0 |   0 |   0 |      --      | 1.897619e+01 |    Inf | unknown
r 0.0s|     1 |     0 |   908 |     - |simplero|   0 | 699 |  77 |  77 |   0 |  0 |   0 |   0 |      --      | 1.743563e+01 |    Inf | unknown
r 0.0s|     1 |     0 |   927 |     - |simplero|   0 | 699 |  77 |  77 |   0 |  0 |   0 |   0 |      --      | 1.726274e+01 |    Inf | unknown
r 0.0s|     1 |     0 |   932 |     - |simplero|   0 | 699 |  77 |  77 |   0 |  0 |   0 |   0 |      --      | 1.723537e+01 |    Inf | unknown
r 0.1s|     1 |     0 |   983 |     - |simplero|   0 | 710 |  77 |  77 |   0 |  0 |   0 |   0 |      --      | 1.551267e+01 |    Inf | unknown
r 0.1s|     1 |     0 |  1030 |     - |simplero|   0 | 721 |  77 |  77 |   0 |  0 |   0 |   0 |      --      | 1.430760e+01 |    Inf | unknown
r 0.1s|     1 |     0 |  1063 |     - |simplero|   0 | 732 |  77 |  77 |   0 |  0 |   0 |   0 |      --      | 1.349627e+01 |    Inf | unknown
r 0.1s|     1 |     0 |  1082 |     - |simplero|   0 | 732 |  77 |  77 |   0 |  0 |   0 |   0 |      --      | 1.333977e+01 |    Inf | unknown
r 0.1s|     1 |     0 |  1088 |     - |simplero|   0 | 732 |  77 |  77 |   0 |  0 |   0 |   0 |      --      | 1.332442e+01 |    Inf | unknown
r 0.1s|     1 |     0 |  1137 |     - |simplero|   0 | 743 |  77 |  77 |   0 |  0 |   0 |   0 |      --      | 1.126203e+01 |    Inf | unknown
r 0.1s|     1 |     0 |  1155 |     - |simplero|   0 | 743 |  77 |  77 |   0 |  0 |   0 |   0 |      --      | 1.112197e+01 |    Inf | unknown
r 0.1s|     1 |     0 |  1161 |     - |simplero|   0 | 743 |  77 |  77 |   0 |  0 |   0 |   0 |      --      | 1.110882e+01 |    Inf | unknown
 time | node  | left  |LP iter|LP it/n|mem/heur|mdpt |vars |cons |rows |cuts |sepa|confs|strbr|  dualbound   | primalbound  |  gap   | compl. 
r 0.1s|     1 |     0 |  1216 |     - |simplero|   0 | 754 |  77 |  77 |   0 |  0 |   0 |   0 |      --      | 9.937866e+00 |    Inf | unknown
r 0.1s|     1 |     0 |  1231 |     - |simplero|   0 | 754 |  77 |  77 |   0 |  0 |   0 |   0 |      --      | 9.896906e+00 |    Inf | unknown
r 0.1s|     1 |     0 |  1238 |     - |simplero|   0 | 754 |  77 |  77 |   0 |  0 |   0 |   0 |      --      | 9.894020e+00 |    Inf | unknown
r 0.1s|     1 |     0 |  1286 |     - |simplero|   0 | 765 |  77 |  77 |   0 |  0 |   0 |   0 |      --      | 8.862489e+00 |    Inf | unknown
r 0.1s|     1 |     0 |  1308 |     - |simplero|   0 | 765 |  77 |  77 |   0 |  0 |   0 |   0 |      --      | 8.743572e+00 |    Inf | unknown
r 0.1s|     1 |     0 |  1374 |     - |simplero|   0 | 776 |  77 |  77 |   0 |  0 |   0 |   0 |      --      | 7.889455e+00 |    Inf | unknown
r 0.1s|     1 |     0 |  1388 |     - |simplero|   0 | 776 |  77 |  77 |   0 |  0 |   0 |   0 |      --      | 7.764444e+00 |    Inf | unknown
r 0.1s|     1 |     0 |  1425 |     - |simplero|   0 | 787 |  77 |  77 |   0 |  0 |   0 |   0 |      --      | 7.220543e+00 |    Inf | unknown
r 0.1s|     1 |     0 |  1451 |     - |simplero|   0 | 787 |  77 |  77 |   0 |  0 |   0 |   0 |      --      | 6.883639e+00 |    Inf | unknown
r 0.1s|     1 |     0 |  1456 |     - |simplero|   0 | 787 |  77 |  77 |   0 |  0 |   0 |   0 |      --      | 6.881765e+00 |    Inf | unknown
r 0.1s|     1 |     0 |  1488 |     - |simplero|   0 | 798 |  77 |  77 |   0 |  0 |   0 |   0 |      --      | 6.457962e+00 |    Inf | unknown
r 0.1s|     1 |     0 |  1494 |     - |simplero|   0 | 798 |  77 |  77 |   0 |  0 |   0 |   0 |      --      | 6.447907e+00 |    Inf | unknown
r 0.1s|     1 |     0 |  1526 |     - |simplero|   0 | 809 |  77 |  77 |   0 |  0 |   0 |   0 |      --      | 6.159207e+00 |    Inf | unknown
r 0.1s|     1 |     0 |  1527 |     - |simplero|   0 | 809 |  77 |  77 |   0 |  0 |   0 |   0 |      --      | 6.158945e+00 |    Inf | unknown
r 0.1s|     1 |     0 |  1553 |     - |simplero|   0 | 820 |  77 |  77 |   0 |  0 |   0 |   0 |      --      | 5.671199e+00 |    Inf | unknown
 time | node  | left  |LP iter|LP it/n|mem/heur|mdpt |vars |cons |rows |cuts |sepa|confs|strbr|  dualbound   | primalbound  |  gap   | compl. 
r 0.1s|     1 |     0 |  1569 |     - |simplero|   0 | 820 |  77 |  77 |   0 |  0 |   0 |   0 |      --      | 5.589117e+00 |    Inf | unknown
r 0.1s|     1 |     0 |  1602 |     - |simplero|   0 | 831 |  77 |  77 |   0 |  0 |   0 |   0 |      --      | 5.389948e+00 |    Inf | unknown
r 0.1s|     1 |     0 |  1614 |     - |simplero|   0 | 831 |  77 |  77 |   0 |  0 |   0 |   0 |      --      | 5.373140e+00 |    Inf | unknown
r 0.1s|     1 |     0 |  1659 |     - |simplero|   0 | 842 |  77 |  77 |   0 |  0 |   0 |   0 |      --      | 5.078377e+00 |    Inf | unknown
  0.1s|     1 |     0 |  1708 |     - |  4285k |   0 | 853 |  77 |  77 |   0 |  0 |   0 |   0 |      --      | 5.078377e+00 |    Inf | unknown
r 0.1s|     1 |     0 |  1708 |     - |simplero|   0 | 853 |  77 |  77 |   0 |  0 |   0 |   0 |      --      | 4.756581e+00 |    Inf | unknown
r 0.1s|     1 |     0 |  1711 |     - |simplero|   0 | 853 |  77 |  77 |   0 |  0 |   0 |   0 |      --      | 4.755760e+00 |    Inf | unknown
r 0.1s|     1 |     0 |  1758 |     - |simplero|   0 | 864 |  77 |  77 |   0 |  0 |   0 |   0 |      --      | 4.476126e+00 |    Inf | unknown
r 0.1s|     1 |     0 |  1775 |     - |simplero|   0 | 864 |  77 |  77 |   0 |  0 |   0 |   0 |      --      | 4.396699e+00 |    Inf | unknown
r 0.1s|     1 |     0 |  1777 |     - |simplero|   0 | 864 |  77 |  77 |   0 |  0 |   0 |   0 |      --      | 4.396499e+00 |    Inf | unknown
r 0.1s|     1 |     0 |  1812 |     - |simplero|   0 | 874 |  77 |  77 |   0 |  0 |   0 |   0 |      --      | 4.197905e+00 |    Inf | unknown
r 0.1s|     1 |     0 |  1822 |     - |simplero|   0 | 874 |  77 |  77 |   0 |  0 |   0 |   0 |      --      | 4.183784e+00 |    Inf | unknown
r 0.1s|     1 |     0 |  1826 |     - |simplero|   0 | 874 |  77 |  77 |   0 |  0 |   0 |   0 |      --      | 4.181643e+00 |    Inf | unknown
r 0.1s|     1 |     0 |  1848 |     - |simplero|   0 | 885 |  77 |  77 |   0 |  0 |   0 |   0 |      --      | 4.129264e+00 |    Inf | unknown
r 0.1s|     1 |     0 |  1867 |     - |simplero|   0 | 895 |  77 |  77 |   0 |  0 |   0 |   0 |      --      | 4.028489e+00 |    Inf | unknown
 time | node  | left  |LP iter|LP it/n|mem/heur|mdpt |vars |cons |rows |cuts |sepa|confs|strbr|  dualbound   | primalbound  |  gap   | compl. 
r 0.1s|     1 |     0 |  1884 |     - |simplero|   0 | 895 |  77 |  77 |   0 |  0 |   0 |   0 |      --      | 4.009572e+00 |    Inf | unknown
r 0.1s|     1 |     0 |  1913 |     - |simplero|   0 | 903 |  77 |  77 |   0 |  0 |   0 |   0 |      --      | 3.924459e+00 |    Inf | unknown
r 0.1s|     1 |     0 |  1918 |     - |simplero|   0 | 903 |  77 |  77 |   0 |  0 |   0 |   0 |      --      | 3.922998e+00 |    Inf | unknown
r 0.1s|     1 |     0 |  1942 |     - |simplero|   0 | 912 |  77 |  77 |   0 |  0 |   0 |   0 |      --      | 3.869369e+00 |    Inf | unknown
r 0.1s|     1 |     0 |  1945 |     - |simplero|   0 | 912 |  77 |  77 |   0 |  0 |   0 |   0 |      --      | 3.869161e+00 |    Inf | unknown
r 0.1s|     1 |     0 |  1970 |     - |simplero|   0 | 920 |  77 |  77 |   0 |  0 |   0 |   0 |      --      | 3.832298e+00 |    Inf | unknown
r 0.1s|     1 |     0 |  1983 |     - |simplero|   0 | 926 |  77 |  77 |   0 |  0 |   0 |   0 |      --      | 3.827614e+00 |    Inf | unknown
r 0.1s|     1 |     0 |  1997 |     - |simplero|   0 | 931 |  77 |  77 |   0 |  0 |   0 |   0 |      --      | 3.825911e+00 |    Inf | unknown
r 0.1s|     1 |     0 |  2001 |     - |simplero|   0 | 933 |  77 |  77 |   0 |  0 |   0 |   0 |      --      | 3.825175e+00 |    Inf | unknown
r 0.1s|     1 |     0 |  2002 |     - |simplero|   0 | 933 |  77 |  77 |   0 |  0 |   0 |   0 |      --      | 3.824903e+00 |    Inf | unknown
r 0.1s|     1 |     0 |  2003 |     - |simplero|   0 | 934 |  77 |  77 |   0 |  0 |   0 |   0 |      --      | 3.824675e+00 |    Inf | unknown
  0.1s|     1 |     0 |  2003 |     - |  4605k |   0 | 934 |  77 |  77 |   0 |  0 |   0 |   0 | 3.824675e+00 | 3.824675e+00 |   0.00%| unknown
  0.1s|     1 |     0 |  2003 |     - |  4605k |   0 | 934 |  77 |  77 |   0 |  0 |   0 |   0 | 3.824675e+00 | 3.824675e+00 |   0.00%| unknown

SCIP Status        : problem is solved [optimal solution found]
Solving Time (sec) : 0.10
Solving Nodes      : 1
Primal Bound       : +3.82467532467533e+00 (54 solutions)
Dual Bound         : +3.82467532467533e+00
Gap                : 0.00 %

written transformed problem to file <results_rootrelaxation/bin012_060_035.srr.lp>
written transformed problem to file <results_rootrelaxation/bin012_060_035.srr.cip>

written solution information to file <results_rootrelaxation/bin012_060_035.srr.sol>



